certificates/rado_a14_c102_N40.cnf
c Rad2 upper bound instance: x1 + 14*x2 - x3 = 102, interval [1,40]
p cnf 40 228
1 8 11 0
-1 -8 -11 0
1 9 25 0
-1 -9 -25 0
1 10 39 0
-1 -10 -39 0
2 8 12 0
-2 -8 -12 0
2 9 26 0
-2 -9 -26 0
2 10 40 0
-2 -10 -40 0
3 8 13 0
-3 -8 -13 0
3 9 27 0
-3 -9 -27 0
4 8 14 0
-4 -8 -14 0
4 9 28 0
-4 -9 -28 0
1 5 7 0
-1 -5 -7 0
5 8 15 0
-5 -8 -15 0
5 9 29 0
-5 -9 -29 0
2 6 7 0
-2 -6 -7 0
6 8 16 0
-6 -8 -16 0
6 9 30 0
-6 -9 -30 0
3 7 0
-3 -7 0
7 8 17 0
-7 -8 -17 0
7 9 31 0
-7 -9 -31 0
4 7 8 0
-4 -7 -8 0
8 18 0
-8 -18 0
8 9 32 0
-8 -9 -32 0
5 7 9 0
-5 -7 -9 0
8 9 19 0
-8 -9 -19 0
9 33 0
-9 -33 0
6 7 10 0
-6 -7 -10 0
8 10 20 0
-8 -10 -20 0
9 10 34 0
-9 -10 -34 0
7 11 0
-7 -11 0
8 11 21 0
-8 -11 -21 0
9 11 35 0
-9 -11 -35 0
7 8 12 0
-7 -8 -12 0
8 12 22 0
-8 -12 -22 0
9 12 36 0
-9 -12 -36 0
7 9 13 0
-7 -9 -13 0
8 13 23 0
-8 -13 -23 0
9 13 37 0
-9 -13 -37 0
7 10 14 0
-7 -10 -14 0
8 14 24 0
-8 -14 -24 0
9 14 38 0
-9 -14 -38 0
7 11 15 0
-7 -11 -15 0
8 15 25 0
-8 -15 -25 0
9 15 39 0
-9 -15 -39 0
7 12 16 0
-7 -12 -16 0
8 16 26 0
-8 -16 -26 0
9 16 40 0
-9 -16 -40 0
7 13 17 0
-7 -13 -17 0
8 17 27 0
-8 -17 -27 0
7 14 18 0
-7 -14 -18 0
8 18 28 0
-8 -18 -28 0
1 6 19 0
-1 -6 -19 0
7 15 19 0
-7 -15 -19 0
8 19 29 0
-8 -19 -29 0
2 6 20 0
-2 -6 -20 0
7 16 20 0
-7 -16 -20 0
8 20 30 0
-8 -20 -30 0
3 6 21 0
-3 -6 -21 0
7 17 21 0
-7 -17 -21 0
8 21 31 0
-8 -21 -31 0
4 6 22 0
-4 -6 -22 0
7 18 22 0
-7 -18 -22 0
8 22 32 0
-8 -22 -32 0
5 6 23 0
-5 -6 -23 0
7 19 23 0
-7 -19 -23 0
8 23 33 0
-8 -23 -33 0
6 24 0
-6 -24 0
7 20 24 0
-7 -20 -24 0
8 24 34 0
-8 -24 -34 0
6 7 25 0
-6 -7 -25 0
7 21 25 0
-7 -21 -25 0
8 25 35 0
-8 -25 -35 0
6 8 26 0
-6 -8 -26 0
7 22 26 0
-7 -22 -26 0
8 26 36 0
-8 -26 -36 0
6 9 27 0
-6 -9 -27 0
7 23 27 0
-7 -23 -27 0
8 27 37 0
-8 -27 -37 0
6 10 28 0
-6 -10 -28 0
7 24 28 0
-7 -24 -28 0
8 28 38 0
-8 -28 -38 0
6 11 29 0
-6 -11 -29 0
7 25 29 0
-7 -25 -29 0
8 29 39 0
-8 -29 -39 0
6 12 30 0
-6 -12 -30 0
7 26 30 0
-7 -26 -30 0
8 30 40 0
-8 -30 -40 0
6 13 31 0
-6 -13 -31 0
7 27 31 0
-7 -27 -31 0
6 14 32 0
-6 -14 -32 0
7 28 32 0
-7 -28 -32 0
1 5 33 0
-1 -5 -33 0
6 15 33 0
-6 -15 -33 0
7 29 33 0
-7 -29 -33 0
2 5 34 0
-2 -5 -34 0
6 16 34 0
-6 -16 -34 0
7 30 34 0
-7 -30 -34 0
3 5 35 0
-3 -5 -35 0
6 17 35 0
-6 -17 -35 0
7 31 35 0
-7 -31 -35 0
4 5 36 0
-4 -5 -36 0
6 18 36 0
-6 -18 -36 0
7 32 36 0
-7 -32 -36 0
5 37 0
-5 -37 0
6 19 37 0
-6 -19 -37 0
7 33 37 0
-7 -33 -37 0
5 6 38 0
-5 -6 -38 0
6 20 38 0
-6 -20 -38 0
7 34 38 0
-7 -34 -38 0
5 7 39 0
-5 -7 -39 0
6 21 39 0
-6 -21 -39 0
7 35 39 0
-7 -35 -39 0
5 8 40 0
-5 -8 -40 0
6 22 40 0
-6 -22 -40 0
7 36 40 0
-7 -36 -40 0
