certificates/rado_a14_c102_N40.drat
7 5 -38 -39 0
5 -38 -39 0
d 7 5 -38 -39 0
-38 -39 -40 0
-5 -34 7 0
7 38 0
-39 -40 0
d -38 -39 -40 0
5 36 -7 0
-7 -40 0
-40 0
-5 7 0
d -5 -34 7 0
7 -38 0
5 -38 0
d 5 -39 -38 0
-38 0
7 0
-3 0
-11 0
-5 0
37 0
8 0
6 0
35 0
36 0
-33 0
-18 0
-27 0
-26 0
-17 0
-12 0
-4 0
-2 0
-10 0
-24 0
-25 0
-19 0
-16 0
-39 0
-31 0
-32 0
9 0
1 0
0
